100 8
105 875
851 648
810 682
724 552
401 242
195 208
642 654
695 640
544 273
154 542
645 381
56 636
368 487
274 790
193 674
581 215
871 359
873 465
92 446
164 191
299 934
280 147
520 374
179 313
806 63
151 816
779 127
740 519
277 267
562 96
725 601
423 158
200 485
849 679
196 161
508 240
884 666
776 152
589 254
140 169
781 158
707 592
301 801
734 676
342 731
195 140
24 645
676 951
626 153
847 578
771 295
656 950
906 778
768 238
679 175
602 132
897 453
617 262
508 335
86 589
811 605
451 281
894 174
99 448
699 169
538 90
334 622
856 374
346 589
219 313
755 195
429 155
650 809
407 540
187 220
234 844
783 116
485 208
183 301
120 956
146 976
652 648
65 451
886 410
562 255
469 239
747 455
110 273
499 276
716 623
711 521
193 485
81 501
327 581
35 598
105 250
526 781
701 525
721 593
288 485
